p cnf 84 372
-5 0
-48 0
-11 0
-47 0
-7 -51 -13 -50 0
7 51 0
7 13 0
7 50 0
51 13 0
51 50 0
13 50 0
-8 -52 -14 -51 0
8 52 0
8 14 0
8 51 0
52 14 0
52 51 0
14 51 0
11 55 17 54 0
-11 -55 0
-11 -17 0
-11 -54 0
-55 -17 0
-55 -54 0
-17 -54 0
15 60 21 59 0
-15 -60 0
-15 -21 0
-15 -59 0
-60 -21 0
-60 -59 0
-21 -59 0
16 61 22 60 0
-16 61 22 60 0
-61 16 22 60 0
-22 16 61 60 0
-60 16 61 22 0
-16 -61 -22 0
-16 -61 -60 0
-16 -22 -60 0
-61 -22 -60 0
21 67 27 66 0
-21 67 27 66 0
-67 21 27 66 0
-27 21 67 66 0
-66 21 67 27 0
-21 -67 -27 0
-21 -67 -66 0
-21 -27 -66 0
-67 -27 -66 0
-22 0
-68 0
-28 0
-67 0
26 73 32 72 0
-26 -73 0
-26 -32 0
-26 -72 0
-73 -32 0
-73 -72 0
-32 -72 0
29 76 35 75 0
-29 -76 0
-29 -35 0
-29 -75 0
-76 -35 0
-76 -75 0
-35 -75 0
30 77 36 76 0
-30 -77 0
-30 -36 0
-30 -76 0
-77 -36 0
-77 -76 0
-36 -76 0
32 80 38 79 0
-32 80 38 79 0
-80 32 38 79 0
-38 32 80 79 0
-79 32 80 38 0
-32 -80 -38 0
-32 -80 -79 0
-32 -38 -79 0
-80 -38 -79 0
-1 43 0
1 -43 0
-2 44 1 0
-44 2 1 0
-1 2 44 0
-2 -44 -1 0
-3 45 2 0
-45 3 2 0
-2 3 45 0
-3 -45 -2 0
-4 46 3 0
-46 4 3 0
-3 4 46 0
-4 -46 -3 0
-5 47 4 0
-47 5 4 0
-4 5 47 0
-5 -47 -4 0
-6 48 5 0
-48 6 5 0
-5 6 48 0
-6 -48 -5 0
-49 6 0
49 -6 0
-43 7 50 0
-7 43 50 0
-50 43 7 0
-43 -7 -50 0
-44 8 51 7 0
-8 44 51 7 0
-51 44 8 7 0
-7 44 8 51 0
-44 -8 -51 0
-44 -8 -7 0
-44 -51 -7 0
-8 -51 -7 0
-45 9 52 8 0
-9 45 52 8 0
-52 45 9 8 0
-8 45 9 52 0
-45 -9 -52 0
-45 -9 -8 0
-45 -52 -8 0
-9 -52 -8 0
-46 10 53 9 0
-10 46 53 9 0
-53 46 10 9 0
-9 46 10 53 0
-46 -10 -53 0
-46 -10 -9 0
-46 -53 -9 0
-10 -53 -9 0
-47 11 54 10 0
-11 47 54 10 0
-54 47 11 10 0
-10 47 11 54 0
-47 -11 -54 0
-47 -11 -10 0
-47 -54 -10 0
-11 -54 -10 0
-48 12 55 11 0
-12 48 55 11 0
-55 48 12 11 0
-11 48 12 55 0
-48 -12 -55 0
-48 -12 -11 0
-48 -55 -11 0
-12 -55 -11 0
-49 56 12 0
-56 49 12 0
-12 49 56 0
-49 -56 -12 0
-50 13 57 0
-13 50 57 0
-57 50 13 0
-50 -13 -57 0
-51 14 58 13 0
-14 51 58 13 0
-58 51 14 13 0
-13 51 14 58 0
-51 -14 -58 0
-51 -14 -13 0
-51 -58 -13 0
-14 -58 -13 0
-52 15 59 14 0
-15 52 59 14 0
-59 52 15 14 0
-14 52 15 59 0
-52 -15 -59 0
-52 -15 -14 0
-52 -59 -14 0
-15 -59 -14 0
-53 16 60 15 0
-16 53 60 15 0
-60 53 16 15 0
-15 53 16 60 0
-53 -16 -60 0
-53 -16 -15 0
-53 -60 -15 0
-16 -60 -15 0
-54 17 61 16 0
-17 54 61 16 0
-61 54 17 16 0
-16 54 17 61 0
-54 -17 -61 0
-54 -17 -16 0
-54 -61 -16 0
-17 -61 -16 0
-55 18 62 17 0
-18 55 62 17 0
-62 55 18 17 0
-17 55 18 62 0
-55 -18 -62 0
-55 -18 -17 0
-55 -62 -17 0
-18 -62 -17 0
-56 63 18 0
-63 56 18 0
-18 56 63 0
-56 -63 -18 0
-57 19 64 0
-19 57 64 0
-64 57 19 0
-57 -19 -64 0
-58 20 65 19 0
-20 58 65 19 0
-65 58 20 19 0
-19 58 20 65 0
-58 -20 -65 0
-58 -20 -19 0
-58 -65 -19 0
-20 -65 -19 0
-59 21 66 20 0
-21 59 66 20 0
-66 59 21 20 0
-20 59 21 66 0
-59 -21 -66 0
-59 -21 -20 0
-59 -66 -20 0
-21 -66 -20 0
-60 22 67 21 0
-22 60 67 21 0
-67 60 22 21 0
-21 60 22 67 0
-60 -22 -67 0
-60 -22 -21 0
-60 -67 -21 0
-22 -67 -21 0
-61 23 68 22 0
-23 61 68 22 0
-68 61 23 22 0
-22 61 23 68 0
-61 -23 -68 0
-61 -23 -22 0
-61 -68 -22 0
-23 -68 -22 0
-62 24 69 23 0
-24 62 69 23 0
-69 62 24 23 0
-23 62 24 69 0
-62 -24 -69 0
-62 -24 -23 0
-62 -69 -23 0
-24 -69 -23 0
-63 70 24 0
-70 63 24 0
-24 63 70 0
-63 -70 -24 0
-64 25 71 0
-25 64 71 0
-71 64 25 0
-64 -25 -71 0
-65 26 72 25 0
-26 65 72 25 0
-72 65 26 25 0
-25 65 26 72 0
-65 -26 -72 0
-65 -26 -25 0
-65 -72 -25 0
-26 -72 -25 0
-66 27 73 26 0
-27 66 73 26 0
-73 66 27 26 0
-26 66 27 73 0
-66 -27 -73 0
-66 -27 -26 0
-66 -73 -26 0
-27 -73 -26 0
-67 28 74 27 0
-28 67 74 27 0
-74 67 28 27 0
-27 67 28 74 0
-67 -28 -74 0
-67 -28 -27 0
-67 -74 -27 0
-28 -74 -27 0
-68 29 75 28 0
-29 68 75 28 0
-75 68 29 28 0
-28 68 29 75 0
-68 -29 -75 0
-68 -29 -28 0
-68 -75 -28 0
-29 -75 -28 0
-69 30 76 29 0
-30 69 76 29 0
-76 69 30 29 0
-29 69 30 76 0
-69 -30 -76 0
-69 -30 -29 0
-69 -76 -29 0
-30 -76 -29 0
-70 77 30 0
-77 70 30 0
-30 70 77 0
-70 -77 -30 0
-71 31 78 0
-31 71 78 0
-78 71 31 0
-71 -31 -78 0
-72 32 79 31 0
-32 72 79 31 0
-79 72 32 31 0
-31 72 32 79 0
-72 -32 -79 0
-72 -32 -31 0
-72 -79 -31 0
-32 -79 -31 0
-73 33 80 32 0
-33 73 80 32 0
-80 73 33 32 0
-32 73 33 80 0
-73 -33 -80 0
-73 -33 -32 0
-73 -80 -32 0
-33 -80 -32 0
-74 34 81 33 0
-34 74 81 33 0
-81 74 34 33 0
-33 74 34 81 0
-74 -34 -81 0
-74 -34 -33 0
-74 -81 -33 0
-34 -81 -33 0
-75 35 82 34 0
-35 75 82 34 0
-82 75 35 34 0
-34 75 35 82 0
-75 -35 -82 0
-75 -35 -34 0
-75 -82 -34 0
-35 -82 -34 0
-76 36 83 35 0
-36 76 83 35 0
-83 76 36 35 0
-35 76 36 83 0
-76 -36 -83 0
-76 -36 -35 0
-76 -83 -35 0
-36 -83 -35 0
-77 84 36 0
-84 77 36 0
-36 77 84 0
-77 -84 -36 0
-78 37 0
78 -37 0
-79 38 37 0
-38 79 37 0
-37 79 38 0
-79 -38 -37 0
-80 39 38 0
-39 80 38 0
-38 80 39 0
-80 -39 -38 0
-81 40 39 0
-40 81 39 0
-39 81 40 0
-81 -40 -39 0
-82 41 40 0
-41 82 40 0
-40 82 41 0
-82 -41 -40 0
-83 42 41 0
-42 83 41 0
-41 83 42 0
-83 -42 -41 0
-84 42 0
84 -42 0
